BAYES
144
2 2 2 2 2 2 2 2 2 2 2 2 2 2 2 2 2 2 2 2 2 2 2 2 2 2 2 2 2 2 2 2 2 2 2 2 2 2 2 2 2 2 2 2 2 2 2 2 2 2 2 2 2 2 2 2 2 2 2 2 2 2 2 2 2 2 2 2 2 2 2 2 2 2 2 2 2 2 2 2 2 2 2 2 2 2 2 2 2 2 2 2 2 2 2 2 2 2 2 2 2 2 2 2 2 2 2 2 2 2 2 2 2 2 2 2 2 2 2 2 2 2 2 2 2 2 2 2 2 2 2 2 2 2 2 2 2 2 2 2 2 2 2 2
144
3 12 1 0
3 13 2 1
3 14 3 2
3 15 4 3
3 16 5 4
3 17 6 5
3 18 7 6
3 19 8 7
3 20 9 8
3 21 10 9
3 22 11 10
2 23 11
3 24 13 12
3 25 14 13
3 26 15 14
3 27 16 15
3 28 17 16
3 29 18 17
3 30 19 18
3 31 20 19
3 32 21 20
3 33 22 21
3 34 23 22
2 35 23
3 36 25 24
3 37 26 25
3 38 27 26
3 39 28 27
3 40 29 28
3 41 30 29
3 42 31 30
3 43 32 31
3 44 33 32
3 45 34 33
3 46 35 34
2 47 35
3 48 37 36
3 49 38 37
3 50 39 38
3 51 40 39
3 52 41 40
3 53 42 41
3 54 43 42
3 55 44 43
3 56 45 44
3 57 46 45
3 58 47 46
2 59 47
3 60 49 48
3 61 50 49
3 62 51 50
3 63 52 51
3 64 53 52
3 65 54 53
3 66 55 54
3 67 56 55
3 68 57 56
3 69 58 57
3 70 59 58
2 71 59
3 72 61 60
3 73 62 61
3 74 63 62
3 75 64 63
3 76 65 64
3 77 66 65
3 78 67 66
3 79 68 67
3 80 69 68
3 81 70 69
3 82 71 70
2 83 71
3 84 73 72
3 85 74 73
3 86 75 74
3 87 76 75
3 88 77 76
3 89 78 77
3 90 79 78
3 91 80 79
3 92 81 80
3 93 82 81
3 94 83 82
2 95 83
3 96 85 84
3 97 86 85
3 98 87 86
3 99 88 87
3 100 89 88
3 101 90 89
3 102 91 90
3 103 92 91
3 104 93 92
3 105 94 93
3 106 95 94
2 107 95
3 108 97 96
3 109 98 97
3 110 99 98
3 111 100 99
3 112 101 100
3 113 102 101
3 114 103 102
3 115 104 103
3 116 105 104
3 117 106 105
3 118 107 106
2 119 107
3 120 109 108
3 121 110 109
3 122 111 110
3 123 112 111
3 124 113 112
3 125 114 113
3 126 115 114
3 127 116 115
3 128 117 116
3 129 118 117
3 130 119 118
2 131 119
3 132 121 120
3 133 122 121
3 134 123 122
3 135 124 123
3 136 125 124
3 137 126 125
3 138 127 126
3 139 128 127
3 140 129 128
3 141 130 129
3 142 131 130
2 143 131
2 133 132
2 134 133
2 135 134
2 136 135
2 137 136
2 138 137
2 139 138
2 140 139
2 141 140
2 142 141
2 143 142
1  143
8
1 0 0 1 1 0 1 0
8
0 1 0 1 1 0 0 1
8
0.38494880689677363 0.6150511931032263 0.3499074350222681 0.6500925649777318 0.6293379393839544 0.3706620606160454 0.5981321487148298 0.40186785128517016
8
0 1 0 1 1 0 0 1
8
0 1 1 0 0 1 0 1
8
1 0 1 0 1 0 0 1
8
1 0 0 1 0 1 1 0
8
1 0 1 0 1 0 1 0
8
1 0 0 1 1 0 1 0
8
1 0 0 1 0 1 0 1
8
0 1 0 1 0 1 1 0
4
0 1 0 1
8
0 1 1 0 0 1 1 0
8
1 0 0 1 1 0 0 1
8
0 1 1 0 0 1 0 1
8
1 0 0 1 0 1 0 1
8
0 1 0 1 1 0 1 0
8
1 0 0 1 1 0 0 1
8
0 1 1 0 0 1 0 1
8
1 0 1 0 0 1 0 1
8
1 0 1 0 1 0 0 1
8
0 1 0 1 1 0 0 1
8
0.9593575950317405 0.04064240496825959 0.5890229810264076 0.4109770189735924 0.7036083007087293 0.2963916992912707 0.16566914541754996 0.83433085458245
4
0 1 1 0
8
0 1 0 1 1 0 0 1
8
0 1 1 0 0 1 0 1
8
0 1 1 0 1 0 1 0
8
0 1 0 1 1 0 1 0
8
1 0 1 0 0 1 1 0
8
1 0 0 1 1 0 0 1
8
0 1 0 1 0 1 0 1
8
1 0 0 1 0 1 1 0
8
0.18804337080893652 0.8119566291910635 0.4333272042663002 0.5666727957336998 0.5384179114002119 0.46158208859978805 0.8389113398984355 0.16108866010156442
8
0 1 0 1 1 0 0 1
8
0 1 1 0 1 0 1 0
4
0 1 1 0
8
0.5774163679106045 0.42258363208939564 0.6398486341955051 0.36015136580449486 0.2711899280607334 0.7288100719392665 0.6623029933474212 0.33769700665257885
8
0 1 1 0 0 1 1 0
8
1 0 0 1 1 0 0 1
8
0 1 0 1 0 1 1 0
8
0.7629956169094355 0.23700438309056446 0.45595034401577117 0.5440496559842288 0.11369624843621573 0.8863037515637843 0.7622313205875828 0.23776867941241714
8
1 0 0 1 1 0 1 0
8
1 0 1 0 1 0 0 1
8
0 1 0 1 1 0 0 1
8
0 1 1 0 0 1 0 1
8
0 1 0 1 1 0 0 1
8
0 1 1 0 0 1 1 0
4
1 0 1 0
8
1 0 1 0 0 1 1 0
8
1 0 0 1 1 0 0 1
8
1 0 0 1 0 1 0 1
8
1 0 1 0 1 0 1 0
8
0 1 1 0 0 1 1 0
8
1 0 0 1 1 0 0 1
8
0 1 1 0 0 1 1 0
8
0 1 1 0 1 0 1 0
8
1 0 0 1 0 1 0 1
8
1 0 0 1 1 0 1 0
8
1 0 1 0 0 1 0 1
4
0 1 0 1
8
0 1 0 1 0 1 1 0
8
1 0 1 0 0 1 0 1
8
0.10648527361200895 0.893514726387991 0.4845538339059523 0.5154461660940477 0.44043948815969547 0.5595605118403046 0.48544047199187845 0.5145595280081215
8
1 0 0 1 0 1 1 0
8
1 0 0 1 0 1 0 1
8
0 1 0 1 0 1 1 0
8
0.6563448032705674 0.3436551967294325 0.7481678090401258 0.2518321909598742 0.6867939304135513 0.3132060695864487 0.8685019379210954 0.1314980620789046
8
0.14411152932910415 0.8558884706708958 0.6934172760450108 0.3065827239549892 0.7754080688225115 0.22459193117748852 0.14051409336381587 0.8594859066361841
8
0 1 1 0 0 1 1 0
8
0 1 0 1 1 0 1 0
8
1 0 0 1 0 1 0 1
4
1 0 0 1
8
1 0 1 0 0 1 1 0
8
0 1 0 1 0 1 0 1
8
0 1 1 0 0 1 1 0
8
0 1 1 0 1 0 0 1
8
0 1 1 0 1 0 1 0
8
0 1 1 0 1 0 0 1
8
0 1 0 1 0 1 0 1
8
0 1 1 0 0 1 1 0
8
0 1 1 0 1 0 0 1
8
0 1 1 0 0 1 1 0
8
1 0 0 1 0 1 1 0
4
0 1 0 1
8
1 0 1 0 0 1 1 0
8
0 1 0 1 0 1 0 1
8
1 0 0 1 0 1 1 0
8
0.56639774261107 0.43360225738893005 0.7079449910552551 0.29205500894474495 0.3311514971222677 0.6688485028777322 0.42669961960959996 0.5733003803904
8
1 0 1 0 0 1 0 1
8
1 0 0 1 1 0 0 1
8
1 0 1 0 1 0 1 0
8
1 0 0 1 1 0 0 1
8
0 1 1 0 0 1 0 1
8
1 0 0 1 1 0 0 1
8
0 1 1 0 0 1 0 1
4
0 1 1 0
8
0.35744839338824197 0.642551606611758 0.2902827198682907 0.7097172801317093 0.8662358159686597 0.13376418403134022 0.5439349659244176 0.4560650340755824
8
0 1 1 0 1 0 0 1
8
0 1 1 0 1 0 0 1
8
1 0 0 1 1 0 1 0
8
0 1 0 1 0 1 1 0
8
1 0 1 0 1 0 1 0
8
0.5458501438806374 0.45414985611936265 0.14460391906255535 0.8553960809374447 0.46663106762739853 0.5333689323726014 0.6207815108833594 0.37921848911664063
8
1 0 0 1 1 0 0 1
8
1 0 1 0 1 0 0 1
8
0 1 1 0 0 1 1 0
8
1 0 1 0 0 1 1 0
4
1 0 0 1
8
0 1 1 0 0 1 0 1
8
0.20679970287694247 0.7932002971230575 0.3223257567872985 0.6776742432127015 0.5389794598779014 0.4610205401220987 0.12449084430343174 0.8755091556965684
8
0 1 0 1 0 1 1 0
8
1 0 0 1 0 1 0 1
8
1 0 0 1 1 0 0 1
8
1 0 1 0 1 0 1 0
8
0 1 1 0 1 0 1 0
8
1 0 1 0 1 0 0 1
8
0 1 0 1 0 1 1 0
8
1 0 0 1 0 1 0 1
8
1 0 1 0 0 1 1 0
4
1 0 1 0
8
0 1 0 1 0 1 0 1
8
1 0 1 0 0 1 0 1
8
1 0 1 0 1 0 0 1
8
0.2855419576323299 0.7144580423676702 0.7596815035019975 0.24031849649800252 0.9728884588531124 0.027111541146887658 0.6875377681679226 0.31246223183207755
8
0 1 1 0 0 1 0 1
8
1 0 0 1 0 1 0 1
8
0 1 0 1 0 1 0 1
8
1 0 1 0 0 1 1 0
8
0 1 0 1 1 0 0 1
8
0 1 1 0 0 1 0 1
8
0 1 0 1 1 0 0 1
4
0 1 1 0
4
1 0 0 1
4
0 1 1 0
4
1 0 0 1
4
1 0 0 1
4
0 1 0 1
4
0.791671560947024 0.208328439052976 0.38951888990228195 0.610481110097718
4
0.417999122347071 0.5820008776529291 0.5629055164517558 0.4370944835482442
4
1 0 0 1
4
1 0 0 1
4
1 0 0 1
4
1 0 0 1
2
0 1
